(set-logic QF_LRA)
(declare-fun fluent_treated_i0_t7@1 () Bool)
(declare-fun fluent_treated_i0_t8@1 () Bool)
(declare-fun fluent_treated_i0_t9@1 () Bool)
(declare-fun fluent_ready_i0_t0@1 () Bool)
(declare-fun fluent_ready_i0_t1@1 () Bool)
(declare-fun fluent_started_i0_t0@0 () Bool)
(declare-fun fluent_started_i0_t1@0 () Bool)
(declare-fun fluent_started_i0_t2@0 () Bool)
(declare-fun fluent_started_i0_t3@0 () Bool)
(declare-fun fluent_started_i0_t4@0 () Bool)
(declare-fun fluent_started_i0_t5@0 () Bool)
(declare-fun fluent_started_i0_t6@0 () Bool)
(declare-fun fluent_started_i0_t7@0 () Bool)
(declare-fun fluent_started_i0_t8@0 () Bool)
(declare-fun fluent_started_i0_t9@0 () Bool)
(declare-fun fluent_ready_i0_t3@1 () Bool)
(declare-fun fluent_ready_i0_t0@0 () Bool)
(declare-fun fluent_ready_i0_t1@0 () Bool)
(declare-fun fluent_ready_i0_t2@0 () Bool)
(declare-fun fluent_ready_i0_t3@0 () Bool)
(declare-fun fluent_ready_i0_t4@0 () Bool)
(declare-fun fluent_ready_i0_t5@0 () Bool)
(declare-fun fluent_ready_i0_t6@0 () Bool)
(declare-fun fluent_ready_i0_t7@0 () Bool)
(declare-fun fluent_ready_i0_t8@0 () Bool)
(declare-fun fluent_ready_i0_t9@0 () Bool)
(declare-fun act_make_treatment@1 () Bool)
(declare-fun fluent_busy_@0 () Bool)
(declare-fun fluent_ready_i0_t9@1 () Bool)
(declare-fun fluent_treated_i0_t0@0 () Bool)
(declare-fun fluent_treated_i0_t1@0 () Bool)
(declare-fun fluent_treated_i0_t2@0 () Bool)
(declare-fun fluent_treated_i0_t3@0 () Bool)
(declare-fun fluent_treated_i0_t4@0 () Bool)
(declare-fun fluent_treated_i0_t5@0 () Bool)
(declare-fun fluent_treated_i0_t6@0 () Bool)
(declare-fun fluent_treated_i0_t7@0 () Bool)
(declare-fun fluent_treated_i0_t8@0 () Bool)
(declare-fun fluent_treated_i0_t9@0 () Bool)
(declare-fun fluent_counter_t0@0 () Real)
(declare-fun fluent_counter_t1@0 () Real)
(declare-fun fluent_counter_t2@0 () Real)
(declare-fun fluent_counter_t3@0 () Real)
(declare-fun fluent_counter_t4@0 () Real)
(declare-fun fluent_counter_t5@0 () Real)
(declare-fun fluent_ready_i0_t2@1 () Bool)
(declare-fun fluent_counter_t6@0 () Real)
(declare-fun fluent_counter_t7@0 () Real)
(declare-fun fluent_counter_t8@0 () Real)
(declare-fun fluent_counter_t9@0 () Real)
(declare-fun fluent_ready_i0_t4@1 () Bool)
(declare-fun dur_make_treatment@1 () Real)
(declare-fun t@1 () Real)
(declare-fun fluent_ready_i0_t5@1 () Bool)
(declare-fun parameter_make_treatment_t@1 () Real)
(declare-fun fluent_ready_i0_t6@1 () Bool)
(declare-fun parameter_make_treatment_i@1 () Real)
(declare-fun fluent_ready_i0_t7@1 () Bool)
(declare-fun fluent_ready_i0_t8@1 () Bool)
(declare-fun fluent_counter_t0@1 () Real)
(declare-fun fluent_counter_t1@1 () Real)
(declare-fun fluent_counter_t2@1 () Real)
(declare-fun fluent_counter_t3@1 () Real)
(declare-fun parameter_make_treatment_next@1 () Real)
(declare-fun fluent_counter_t4@1 () Real)
(declare-fun fluent_counter_t5@1 () Real)
(declare-fun fluent_counter_t6@1 () Real)
(declare-fun fluent_counter_t7@1 () Real)
(declare-fun fluent_counter_t8@1 () Real)
(declare-fun fluent_counter_t9@1 () Real)
(declare-fun fluent_busy_@1 () Bool)
(declare-fun fluent_started_i0_t0@1 () Bool)
(declare-fun fluent_started_i0_t1@1 () Bool)
(declare-fun fluent_started_i0_t2@1 () Bool)
(declare-fun fluent_started_i0_t3@1 () Bool)
(declare-fun fluent_started_i0_t4@1 () Bool)
(declare-fun fluent_started_i0_t5@1 () Bool)
(declare-fun fluent_started_i0_t6@1 () Bool)
(declare-fun fluent_started_i0_t7@1 () Bool)
(declare-fun fluent_started_i0_t8@1 () Bool)
(declare-fun fluent_started_i0_t9@1 () Bool)
(declare-fun fluent_treated_i0_t0@1 () Bool)
(declare-fun fluent_treated_i0_t1@1 () Bool)
(declare-fun fluent_treated_i0_t2@1 () Bool)
(declare-fun fluent_treated_i0_t3@1 () Bool)
(declare-fun fluent_treated_i0_t4@1 () Bool)
(declare-fun fluent_treated_i0_t5@1 () Bool)
(declare-fun fluent_treated_i0_t6@1 () Bool)
(assert (let ((.def_0 (<= fluent_counter_t9@1 31.0))) (let ((.def_1 (<= 0.0 fluent_counter_t9@1))) (let ((.def_2 (<= fluent_counter_t8@1 31.0))) (let ((.def_3 (<= 0.0 fluent_counter_t8@1))) (let ((.def_4 (<= fluent_counter_t7@1 31.0))) (let ((.def_5 (<= 0.0 fluent_counter_t7@1))) (let ((.def_6 (<= fluent_counter_t6@1 31.0))) (let ((.def_7 (<= 0.0 fluent_counter_t6@1))) (let ((.def_8 (= parameter_make_treatment_next@1 10.0))) (let ((.def_9 (= parameter_make_treatment_next@1 9.0))) (let ((.def_10 (= parameter_make_treatment_next@1 8.0))) (let ((.def_11 (= parameter_make_treatment_next@1 7.0))) (let ((.def_12 (= parameter_make_treatment_next@1 6.0))) (let ((.def_13 (= parameter_make_treatment_next@1 5.0))) (let ((.def_14 (= parameter_make_treatment_next@1 4.0))) (let ((.def_15 (= parameter_make_treatment_next@1 3.0))) (let ((.def_16 (= parameter_make_treatment_next@1 2.0))) (let ((.def_17 (= parameter_make_treatment_next@1 1.0))) (let ((.def_18 (or .def_17 .def_16 .def_15 .def_14 .def_13 .def_12 .def_11 .def_10 .def_9 .def_8))) (let ((.def_19 (<= fluent_counter_t5@1 31.0))) (let ((.def_20 (<= 0.0 fluent_counter_t5@1))) (let ((.def_21 (<= fluent_counter_t4@1 31.0))) (let ((.def_22 (<= 0.0 fluent_counter_t4@1))) (let ((.def_23 (<= fluent_counter_t3@1 31.0))) (let ((.def_24 (<= 0.0 fluent_counter_t3@1))) (let ((.def_25 (<= fluent_counter_t2@1 31.0))) (let ((.def_26 (<= 0.0 fluent_counter_t2@1))) (let ((.def_27 (<= fluent_counter_t1@1 31.0))) (let ((.def_28 (<= 0.0 fluent_counter_t1@1))) (let ((.def_29 (<= fluent_counter_t0@1 31.0))) (let ((.def_30 (<= 0.0 fluent_counter_t0@1))) (let ((.def_31 (= parameter_make_treatment_i@1 0.0))) (let ((.def_32 (= parameter_make_treatment_t@1 10.0))) (let ((.def_33 (= parameter_make_treatment_t@1 9.0))) (let ((.def_34 (= parameter_make_treatment_t@1 8.0))) (let ((.def_35 (= parameter_make_treatment_t@1 7.0))) (let ((.def_36 (= parameter_make_treatment_t@1 6.0))) (let ((.def_37 (= parameter_make_treatment_t@1 5.0))) (let ((.def_38 (= parameter_make_treatment_t@1 4.0))) (let ((.def_39 (= parameter_make_treatment_t@1 3.0))) (let ((.def_40 (= parameter_make_treatment_t@1 2.0))) (let ((.def_41 (= parameter_make_treatment_t@1 1.0))) (let ((.def_42 (or .def_41 .def_40 .def_39 .def_38 .def_37 .def_36 .def_35 .def_34 .def_33 .def_32))) (let ((.def_43 (and act_make_treatment@1 true .def_32))) (let ((.def_44 (= fluent_counter_t9@0 fluent_counter_t9@1))) (let ((.def_45 (not .def_44))) (let ((.def_46 (=> .def_45 .def_43))) (let ((.def_47 (and act_make_treatment@1 true .def_33))) (let ((.def_48 (= fluent_counter_t8@0 fluent_counter_t8@1))) (let ((.def_49 (not .def_48))) (let ((.def_50 (=> .def_49 .def_47))) (let ((.def_51 (and act_make_treatment@1 true .def_34))) (let ((.def_52 (= fluent_counter_t7@0 fluent_counter_t7@1))) (let ((.def_53 (not .def_52))) (let ((.def_54 (=> .def_53 .def_51))) (let ((.def_55 (and act_make_treatment@1 true .def_35))) (let ((.def_56 (= fluent_counter_t6@0 fluent_counter_t6@1))) (let ((.def_57 (not .def_56))) (let ((.def_58 (=> .def_57 .def_55))) (let ((.def_59 (and act_make_treatment@1 true .def_36))) (let ((.def_60 (= fluent_counter_t5@0 fluent_counter_t5@1))) (let ((.def_61 (not .def_60))) (let ((.def_62 (=> .def_61 .def_59))) (let ((.def_63 (and act_make_treatment@1 true .def_37))) (let ((.def_64 (= fluent_counter_t4@0 fluent_counter_t4@1))) (let ((.def_65 (not .def_64))) (let ((.def_66 (=> .def_65 .def_63))) (let ((.def_67 (and act_make_treatment@1 true .def_38))) (let ((.def_68 (= fluent_counter_t3@0 fluent_counter_t3@1))) (let ((.def_69 (not .def_68))) (let ((.def_70 (=> .def_69 .def_67))) (let ((.def_71 (and act_make_treatment@1 true .def_39))) (let ((.def_72 (= fluent_counter_t2@0 fluent_counter_t2@1))) (let ((.def_73 (not .def_72))) (let ((.def_74 (=> .def_73 .def_71))) (let ((.def_75 (and act_make_treatment@1 true .def_40))) (let ((.def_76 (= fluent_counter_t1@0 fluent_counter_t1@1))) (let ((.def_77 (not .def_76))) (let ((.def_78 (=> .def_77 .def_75))) (let ((.def_79 (and act_make_treatment@1 true .def_41))) (let ((.def_80 (= fluent_counter_t0@0 fluent_counter_t0@1))) (let ((.def_81 (not .def_80))) (let ((.def_82 (=> .def_81 .def_79))) (let ((.def_83 (+ t@1 10.0))) (let ((.def_84 (= t@1 .def_83))) (let ((.def_85 (and act_make_treatment@1 true .def_84 .def_31 .def_8))) (let ((.def_86 (= fluent_ready_i0_t9@0 fluent_ready_i0_t9@1))) (let ((.def_87 (not .def_86))) (let ((.def_88 (=> .def_87 .def_85))) (let ((.def_89 (and act_make_treatment@1 true .def_84 .def_31 .def_9))) (let ((.def_90 (= fluent_ready_i0_t8@0 fluent_ready_i0_t8@1))) (let ((.def_91 (not .def_90))) (let ((.def_92 (=> .def_91 .def_89))) (let ((.def_93 (and act_make_treatment@1 true .def_84 .def_31 .def_10))) (let ((.def_94 (= fluent_ready_i0_t7@0 fluent_ready_i0_t7@1))) (let ((.def_95 (not .def_94))) (let ((.def_96 (=> .def_95 .def_93))) (let ((.def_97 (and act_make_treatment@1 true .def_84 .def_31 .def_11))) (let ((.def_98 (= fluent_ready_i0_t6@0 fluent_ready_i0_t6@1))) (let ((.def_99 (not .def_98))) (let ((.def_100 (=> .def_99 .def_97))) (let ((.def_101 (and act_make_treatment@1 true .def_84 .def_31 .def_12))) (let ((.def_102 (= fluent_ready_i0_t5@0 fluent_ready_i0_t5@1))) (let ((.def_103 (not .def_102))) (let ((.def_104 (=> .def_103 .def_101))) (let ((.def_105 (and act_make_treatment@1 true .def_84 .def_31 .def_13))) (let ((.def_106 (= fluent_ready_i0_t4@0 fluent_ready_i0_t4@1))) (let ((.def_107 (not .def_106))) (let ((.def_108 (=> .def_107 .def_105))) (let ((.def_109 (and act_make_treatment@1 true .def_84 .def_31 .def_14))) (let ((.def_110 (= fluent_ready_i0_t3@0 fluent_ready_i0_t3@1))) (let ((.def_111 (not .def_110))) (let ((.def_112 (=> .def_111 .def_109))) (let ((.def_113 (and act_make_treatment@1 true .def_84 .def_31 .def_15))) (let ((.def_114 (= fluent_ready_i0_t2@0 fluent_ready_i0_t2@1))) (let ((.def_115 (not .def_114))) (let ((.def_116 (=> .def_115 .def_113))) (let ((.def_117 (and act_make_treatment@1 true .def_84 .def_31 .def_16))) (let ((.def_118 (= fluent_ready_i0_t1@0 fluent_ready_i0_t1@1))) (let ((.def_119 (not .def_118))) (let ((.def_120 (=> .def_119 .def_117))) (let ((.def_121 (and act_make_treatment@1 true .def_84 .def_31 .def_17))) (let ((.def_122 (= fluent_ready_i0_t0@0 fluent_ready_i0_t0@1))) (let ((.def_123 (not .def_122))) (let ((.def_124 (=> .def_123 .def_121))) (let ((.def_125 (and act_make_treatment@1 true .def_31 .def_32))) (let ((.def_126 (= fluent_started_i0_t9@0 fluent_started_i0_t9@1))) (let ((.def_127 (not .def_126))) (let ((.def_128 (=> .def_127 .def_125))) (let ((.def_129 (and act_make_treatment@1 true .def_31 .def_33))) (let ((.def_130 (= fluent_started_i0_t8@0 fluent_started_i0_t8@1))) (let ((.def_131 (not .def_130))) (let ((.def_132 (=> .def_131 .def_129))) (let ((.def_133 (and act_make_treatment@1 true .def_31 .def_34))) (let ((.def_134 (= fluent_started_i0_t7@0 fluent_started_i0_t7@1))) (let ((.def_135 (not .def_134))) (let ((.def_136 (=> .def_135 .def_133))) (let ((.def_137 (and act_make_treatment@1 true .def_31 .def_35))) (let ((.def_138 (= fluent_started_i0_t6@0 fluent_started_i0_t6@1))) (let ((.def_139 (not .def_138))) (let ((.def_140 (=> .def_139 .def_137))) (let ((.def_141 (and act_make_treatment@1 true .def_31 .def_36))) (let ((.def_142 (= fluent_started_i0_t5@0 fluent_started_i0_t5@1))) (let ((.def_143 (not .def_142))) (let ((.def_144 (=> .def_143 .def_141))) (let ((.def_145 (and act_make_treatment@1 true .def_31 .def_37))) (let ((.def_146 (= fluent_started_i0_t4@0 fluent_started_i0_t4@1))) (let ((.def_147 (not .def_146))) (let ((.def_148 (=> .def_147 .def_145))) (let ((.def_149 (and act_make_treatment@1 true .def_31 .def_38))) (let ((.def_150 (= fluent_started_i0_t3@0 fluent_started_i0_t3@1))) (let ((.def_151 (not .def_150))) (let ((.def_152 (=> .def_151 .def_149))) (let ((.def_153 (and act_make_treatment@1 true .def_31 .def_39))) (let ((.def_154 (= fluent_started_i0_t2@0 fluent_started_i0_t2@1))) (let ((.def_155 (not .def_154))) (let ((.def_156 (=> .def_155 .def_153))) (let ((.def_157 (and act_make_treatment@1 true .def_31 .def_40))) (let ((.def_158 (= fluent_started_i0_t1@0 fluent_started_i0_t1@1))) (let ((.def_159 (not .def_158))) (let ((.def_160 (=> .def_159 .def_157))) (let ((.def_161 (and act_make_treatment@1 true .def_31 .def_41))) (let ((.def_162 (= fluent_started_i0_t0@0 fluent_started_i0_t0@1))) (let ((.def_163 (not .def_162))) (let ((.def_164 (=> .def_163 .def_161))) (let ((.def_165 (+ t@1 4.0))) (let ((.def_166 (= t@1 .def_165))) (let ((.def_167 (and act_make_treatment@1 true .def_166 .def_31 .def_32))) (let ((.def_168 (= fluent_treated_i0_t9@0 fluent_treated_i0_t9@1))) (let ((.def_169 (not .def_168))) (let ((.def_170 (=> .def_169 .def_167))) (let ((.def_171 (and act_make_treatment@1 true .def_166 .def_31 .def_33))) (let ((.def_172 (= fluent_treated_i0_t8@0 fluent_treated_i0_t8@1))) (let ((.def_173 (not .def_172))) (let ((.def_174 (=> .def_173 .def_171))) (let ((.def_175 (and act_make_treatment@1 true .def_166 .def_31 .def_34))) (let ((.def_176 (= fluent_treated_i0_t7@0 fluent_treated_i0_t7@1))) (let ((.def_177 (not .def_176))) (let ((.def_178 (=> .def_177 .def_175))) (let ((.def_179 (and act_make_treatment@1 true .def_166 .def_31 .def_35))) (let ((.def_180 (= fluent_treated_i0_t6@0 fluent_treated_i0_t6@1))) (let ((.def_181 (not .def_180))) (let ((.def_182 (=> .def_181 .def_179))) (let ((.def_183 (and act_make_treatment@1 true .def_166 .def_31 .def_36))) (let ((.def_184 (= fluent_treated_i0_t5@0 fluent_treated_i0_t5@1))) (let ((.def_185 (not .def_184))) (let ((.def_186 (=> .def_185 .def_183))) (let ((.def_187 (and act_make_treatment@1 true .def_166 .def_31 .def_37))) (let ((.def_188 (= fluent_treated_i0_t4@0 fluent_treated_i0_t4@1))) (let ((.def_189 (not .def_188))) (let ((.def_190 (=> .def_189 .def_187))) (let ((.def_191 (and act_make_treatment@1 true .def_166 .def_31 .def_38))) (let ((.def_192 (= fluent_treated_i0_t3@0 fluent_treated_i0_t3@1))) (let ((.def_193 (not .def_192))) (let ((.def_194 (=> .def_193 .def_191))) (let ((.def_195 (and act_make_treatment@1 true .def_166 .def_31 .def_39))) (let ((.def_196 (= fluent_treated_i0_t2@0 fluent_treated_i0_t2@1))) (let ((.def_197 (not .def_196))) (let ((.def_198 (=> .def_197 .def_195))) (let ((.def_199 (and act_make_treatment@1 true .def_166 .def_31 .def_40))) (let ((.def_200 (= fluent_treated_i0_t1@0 fluent_treated_i0_t1@1))) (let ((.def_201 (not .def_200))) (let ((.def_202 (=> .def_201 .def_199))) (let ((.def_203 (and act_make_treatment@1 true .def_166 .def_31 .def_41))) (let ((.def_204 (= fluent_treated_i0_t0@0 fluent_treated_i0_t0@1))) (let ((.def_205 (not .def_204))) (let ((.def_206 (=> .def_205 .def_203))) (let ((.def_207 (and act_make_treatment@1 true .def_166))) (let ((.def_208 (and act_make_treatment@1 true))) (let ((.def_209 (and .def_208 .def_207))) (let ((.def_210 (not .def_209))) (let ((.def_211 (or .def_208 .def_207))) (let ((.def_212 (= fluent_busy_@0 fluent_busy_@1))) (let ((.def_213 (not .def_212))) (let ((.def_214 (=> .def_213 .def_211))) (let ((.def_215 (and .def_214 .def_210 .def_206 .def_202 .def_198 .def_194 .def_190 .def_186 .def_182 .def_178 .def_174 .def_170 .def_164 .def_160 .def_156 .def_152 .def_148 .def_144 .def_140 .def_136 .def_132 .def_128 .def_124 .def_120 .def_116 .def_112 .def_108 .def_104 .def_100 .def_96 .def_92 .def_88 .def_82 .def_78 .def_74 .def_70 .def_66 .def_62 .def_58 .def_54 .def_50 .def_46))) (let ((.def_216 (<= 0.0 t@1))) (let ((.def_217 (and .def_31 .def_16))) (let ((.def_218 (ite .def_217 fluent_ready_i0_t1@1 fluent_ready_i0_t0@1))) (let ((.def_219 (and .def_31 .def_15))) (let ((.def_220 (ite .def_219 fluent_ready_i0_t2@1 .def_218))) (let ((.def_221 (and .def_31 .def_14))) (let ((.def_222 (ite .def_221 fluent_ready_i0_t3@1 .def_220))) (let ((.def_223 (and .def_31 .def_13))) (let ((.def_224 (ite .def_223 fluent_ready_i0_t4@1 .def_222))) (let ((.def_225 (and .def_31 .def_12))) (let ((.def_226 (ite .def_225 fluent_ready_i0_t5@1 .def_224))) (let ((.def_227 (and .def_31 .def_11))) (let ((.def_228 (ite .def_227 fluent_ready_i0_t6@1 .def_226))) (let ((.def_229 (and .def_31 .def_10))) (let ((.def_230 (ite .def_229 fluent_ready_i0_t7@1 .def_228))) (let ((.def_231 (and .def_31 .def_9))) (let ((.def_232 (ite .def_231 fluent_ready_i0_t8@1 .def_230))) (let ((.def_233 (and .def_31 .def_8))) (let ((.def_234 (ite .def_233 fluent_ready_i0_t9@1 .def_232))) (let ((.def_235 (= .def_234 true))) (let ((.def_236 (=> true .def_235))) (let ((.def_237 (and .def_84 .def_236))) (let ((.def_238 (= fluent_busy_@1 false))) (let ((.def_239 (=> true .def_238))) (let ((.def_240 (and .def_31 .def_40))) (let ((.def_241 (ite .def_240 fluent_treated_i0_t1@1 fluent_treated_i0_t0@1))) (let ((.def_242 (and .def_31 .def_39))) (let ((.def_243 (ite .def_242 fluent_treated_i0_t2@1 .def_241))) (let ((.def_244 (and .def_31 .def_38))) (let ((.def_245 (ite .def_244 fluent_treated_i0_t3@1 .def_243))) (let ((.def_246 (and .def_31 .def_37))) (let ((.def_247 (ite .def_246 fluent_treated_i0_t4@1 .def_245))) (let ((.def_248 (and .def_31 .def_36))) (let ((.def_249 (ite .def_248 fluent_treated_i0_t5@1 .def_247))) (let ((.def_250 (and .def_31 .def_35))) (let ((.def_251 (ite .def_250 fluent_treated_i0_t6@1 .def_249))) (let ((.def_252 (and .def_31 .def_34))) (let ((.def_253 (ite .def_252 fluent_treated_i0_t7@1 .def_251))) (let ((.def_254 (and .def_31 .def_33))) (let ((.def_255 (ite .def_254 fluent_treated_i0_t8@1 .def_253))) (let ((.def_256 (and .def_31 .def_32))) (let ((.def_257 (ite .def_256 fluent_treated_i0_t9@1 .def_255))) (let ((.def_258 (= .def_257 true))) (let ((.def_259 (=> true .def_258))) (let ((.def_260 (and .def_166 .def_259 .def_239))) (let ((.def_261 (ite .def_240 fluent_started_i0_t1@1 fluent_started_i0_t0@1))) (let ((.def_262 (ite .def_242 fluent_started_i0_t2@1 .def_261))) (let ((.def_263 (ite .def_244 fluent_started_i0_t3@1 .def_262))) (let ((.def_264 (ite .def_246 fluent_started_i0_t4@1 .def_263))) (let ((.def_265 (ite .def_248 fluent_started_i0_t5@1 .def_264))) (let ((.def_266 (ite .def_250 fluent_started_i0_t6@1 .def_265))) (let ((.def_267 (ite .def_252 fluent_started_i0_t7@1 .def_266))) (let ((.def_268 (ite .def_254 fluent_started_i0_t8@1 .def_267))) (let ((.def_269 (ite .def_256 fluent_started_i0_t9@1 .def_268))) (let ((.def_270 (= .def_269 true))) (let ((.def_271 (=> true .def_270))) (let ((.def_272 (= fluent_busy_@1 true))) (let ((.def_273 (=> true .def_272))) (let ((.def_274 (ite .def_40 fluent_counter_t1@0 fluent_counter_t0@0))) (let ((.def_275 (ite .def_39 fluent_counter_t2@0 .def_274))) (let ((.def_276 (ite .def_38 fluent_counter_t3@0 .def_275))) (let ((.def_277 (ite .def_37 fluent_counter_t4@0 .def_276))) (let ((.def_278 (ite .def_36 fluent_counter_t5@0 .def_277))) (let ((.def_279 (ite .def_35 fluent_counter_t6@0 .def_278))) (let ((.def_280 (ite .def_34 fluent_counter_t7@0 .def_279))) (let ((.def_281 (ite .def_33 fluent_counter_t8@0 .def_280))) (let ((.def_282 (ite .def_32 fluent_counter_t9@0 .def_281))) (let ((.def_283 (+ .def_282 1.0))) (let ((.def_284 (ite .def_40 fluent_counter_t1@1 fluent_counter_t0@1))) (let ((.def_285 (ite .def_39 fluent_counter_t2@1 .def_284))) (let ((.def_286 (ite .def_38 fluent_counter_t3@1 .def_285))) (let ((.def_287 (ite .def_37 fluent_counter_t4@1 .def_286))) (let ((.def_288 (ite .def_36 fluent_counter_t5@1 .def_287))) (let ((.def_289 (ite .def_35 fluent_counter_t6@1 .def_288))) (let ((.def_290 (ite .def_34 fluent_counter_t7@1 .def_289))) (let ((.def_291 (ite .def_33 fluent_counter_t8@1 .def_290))) (let ((.def_292 (ite .def_32 fluent_counter_t9@1 .def_291))) (let ((.def_293 (= .def_292 .def_283))) (let ((.def_294 (=> true .def_293))) (let ((.def_295 (= t@1 t@1))) (let ((.def_296 (and .def_295 .def_294 .def_273 .def_271))) (let ((.def_297 (ite .def_217 fluent_started_i0_t1@0 fluent_started_i0_t0@0))) (let ((.def_298 (ite .def_219 fluent_started_i0_t2@0 .def_297))) (let ((.def_299 (ite .def_221 fluent_started_i0_t3@0 .def_298))) (let ((.def_300 (ite .def_223 fluent_started_i0_t4@0 .def_299))) (let ((.def_301 (ite .def_225 fluent_started_i0_t5@0 .def_300))) (let ((.def_302 (ite .def_227 fluent_started_i0_t6@0 .def_301))) (let ((.def_303 (ite .def_229 fluent_started_i0_t7@0 .def_302))) (let ((.def_304 (ite .def_231 fluent_started_i0_t8@0 .def_303))) (let ((.def_305 (ite .def_233 fluent_started_i0_t9@0 .def_304))) (let ((.def_306 (+ t@1 dur_make_treatment@1))) (let ((.def_307 (<= .def_306 t@1))) (let ((.def_308 (< (- 1.0) .def_306))) (let ((.def_309 (and .def_308 .def_307))) (let ((.def_310 (=> .def_309 .def_305))) (let ((.def_311 (ite .def_240 fluent_ready_i0_t1@0 fluent_ready_i0_t0@0))) (let ((.def_312 (ite .def_242 fluent_ready_i0_t2@0 .def_311))) (let ((.def_313 (ite .def_244 fluent_ready_i0_t3@0 .def_312))) (let ((.def_314 (ite .def_246 fluent_ready_i0_t4@0 .def_313))) (let ((.def_315 (ite .def_248 fluent_ready_i0_t5@0 .def_314))) (let ((.def_316 (ite .def_250 fluent_ready_i0_t6@0 .def_315))) (let ((.def_317 (ite .def_252 fluent_ready_i0_t7@0 .def_316))) (let ((.def_318 (ite .def_254 fluent_ready_i0_t8@0 .def_317))) (let ((.def_319 (ite .def_256 fluent_ready_i0_t9@0 .def_318))) (let ((.def_320 (ite .def_240 fluent_started_i0_t1@0 fluent_started_i0_t0@0))) (let ((.def_321 (ite .def_242 fluent_started_i0_t2@0 .def_320))) (let ((.def_322 (ite .def_244 fluent_started_i0_t3@0 .def_321))) (let ((.def_323 (ite .def_246 fluent_started_i0_t4@0 .def_322))) (let ((.def_324 (ite .def_248 fluent_started_i0_t5@0 .def_323))) (let ((.def_325 (ite .def_250 fluent_started_i0_t6@0 .def_324))) (let ((.def_326 (ite .def_252 fluent_started_i0_t7@0 .def_325))) (let ((.def_327 (ite .def_254 fluent_started_i0_t8@0 .def_326))) (let ((.def_328 (ite .def_256 fluent_started_i0_t9@0 .def_327))) (let ((.def_329 (not .def_328))) (let ((.def_330 (ite .def_240 fluent_treated_i0_t1@0 fluent_treated_i0_t0@0))) (let ((.def_331 (ite .def_242 fluent_treated_i0_t2@0 .def_330))) (let ((.def_332 (ite .def_244 fluent_treated_i0_t3@0 .def_331))) (let ((.def_333 (ite .def_246 fluent_treated_i0_t4@0 .def_332))) (let ((.def_334 (ite .def_248 fluent_treated_i0_t5@0 .def_333))) (let ((.def_335 (ite .def_250 fluent_treated_i0_t6@0 .def_334))) (let ((.def_336 (ite .def_252 fluent_treated_i0_t7@0 .def_335))) (let ((.def_337 (ite .def_254 fluent_treated_i0_t8@0 .def_336))) (let ((.def_338 (ite .def_256 fluent_treated_i0_t9@0 .def_337))) (let ((.def_339 (not .def_338))) (let ((.def_340 (not fluent_busy_@0))) (let ((.def_341 (and .def_40 .def_17))) (let ((.def_342 (ite .def_341 false false))) (let ((.def_343 (and .def_39 .def_17))) (let ((.def_344 (ite .def_343 false .def_342))) (let ((.def_345 (and .def_38 .def_17))) (let ((.def_346 (ite .def_345 false .def_344))) (let ((.def_347 (and .def_37 .def_17))) (let ((.def_348 (ite .def_347 false .def_346))) (let ((.def_349 (and .def_36 .def_17))) (let ((.def_350 (ite .def_349 false .def_348))) (let ((.def_351 (and .def_35 .def_17))) (let ((.def_352 (ite .def_351 false .def_350))) (let ((.def_353 (and .def_34 .def_17))) (let ((.def_354 (ite .def_353 false .def_352))) (let ((.def_355 (and .def_33 .def_17))) (let ((.def_356 (ite .def_355 false .def_354))) (let ((.def_357 (and .def_32 .def_17))) (let ((.def_358 (ite .def_357 false .def_356))) (let ((.def_359 (and .def_41 .def_16))) (let ((.def_360 (ite .def_359 true .def_358))) (let ((.def_361 (and .def_40 .def_16))) (let ((.def_362 (ite .def_361 false .def_360))) (let ((.def_363 (and .def_39 .def_16))) (let ((.def_364 (ite .def_363 false .def_362))) (let ((.def_365 (and .def_38 .def_16))) (let ((.def_366 (ite .def_365 false .def_364))) (let ((.def_367 (and .def_37 .def_16))) (let ((.def_368 (ite .def_367 false .def_366))) (let ((.def_369 (and .def_36 .def_16))) (let ((.def_370 (ite .def_369 false .def_368))) (let ((.def_371 (and .def_35 .def_16))) (let ((.def_372 (ite .def_371 false .def_370))) (let ((.def_373 (and .def_34 .def_16))) (let ((.def_374 (ite .def_373 false .def_372))) (let ((.def_375 (and .def_33 .def_16))) (let ((.def_376 (ite .def_375 false .def_374))) (let ((.def_377 (and .def_32 .def_16))) (let ((.def_378 (ite .def_377 false .def_376))) (let ((.def_379 (and .def_41 .def_15))) (let ((.def_380 (ite .def_379 false .def_378))) (let ((.def_381 (and .def_40 .def_15))) (let ((.def_382 (ite .def_381 true .def_380))) (let ((.def_383 (and .def_39 .def_15))) (let ((.def_384 (ite .def_383 false .def_382))) (let ((.def_385 (and .def_38 .def_15))) (let ((.def_386 (ite .def_385 false .def_384))) (let ((.def_387 (and .def_37 .def_15))) (let ((.def_388 (ite .def_387 false .def_386))) (let ((.def_389 (and .def_36 .def_15))) (let ((.def_390 (ite .def_389 false .def_388))) (let ((.def_391 (and .def_35 .def_15))) (let ((.def_392 (ite .def_391 false .def_390))) (let ((.def_393 (and .def_34 .def_15))) (let ((.def_394 (ite .def_393 false .def_392))) (let ((.def_395 (and .def_33 .def_15))) (let ((.def_396 (ite .def_395 false .def_394))) (let ((.def_397 (and .def_32 .def_15))) (let ((.def_398 (ite .def_397 false .def_396))) (let ((.def_399 (and .def_41 .def_14))) (let ((.def_400 (ite .def_399 false .def_398))) (let ((.def_401 (and .def_40 .def_14))) (let ((.def_402 (ite .def_401 false .def_400))) (let ((.def_403 (and .def_39 .def_14))) (let ((.def_404 (ite .def_403 true .def_402))) (let ((.def_405 (and .def_38 .def_14))) (let ((.def_406 (ite .def_405 false .def_404))) (let ((.def_407 (and .def_37 .def_14))) (let ((.def_408 (ite .def_407 false .def_406))) (let ((.def_409 (and .def_36 .def_14))) (let ((.def_410 (ite .def_409 false .def_408))) (let ((.def_411 (and .def_35 .def_14))) (let ((.def_412 (ite .def_411 false .def_410))) (let ((.def_413 (and .def_34 .def_14))) (let ((.def_414 (ite .def_413 false .def_412))) (let ((.def_415 (and .def_33 .def_14))) (let ((.def_416 (ite .def_415 false .def_414))) (let ((.def_417 (and .def_32 .def_14))) (let ((.def_418 (ite .def_417 false .def_416))) (let ((.def_419 (and .def_41 .def_13))) (let ((.def_420 (ite .def_419 false .def_418))) (let ((.def_421 (and .def_40 .def_13))) (let ((.def_422 (ite .def_421 false .def_420))) (let ((.def_423 (and .def_39 .def_13))) (let ((.def_424 (ite .def_423 false .def_422))) (let ((.def_425 (and .def_38 .def_13))) (let ((.def_426 (ite .def_425 true .def_424))) (let ((.def_427 (and .def_37 .def_13))) (let ((.def_428 (ite .def_427 false .def_426))) (let ((.def_429 (and .def_36 .def_13))) (let ((.def_430 (ite .def_429 false .def_428))) (let ((.def_431 (and .def_35 .def_13))) (let ((.def_432 (ite .def_431 false .def_430))) (let ((.def_433 (and .def_34 .def_13))) (let ((.def_434 (ite .def_433 false .def_432))) (let ((.def_435 (and .def_33 .def_13))) (let ((.def_436 (ite .def_435 false .def_434))) (let ((.def_437 (and .def_32 .def_13))) (let ((.def_438 (ite .def_437 false .def_436))) (let ((.def_439 (and .def_41 .def_12))) (let ((.def_440 (ite .def_439 false .def_438))) (let ((.def_441 (and .def_40 .def_12))) (let ((.def_442 (ite .def_441 false .def_440))) (let ((.def_443 (and .def_39 .def_12))) (let ((.def_444 (ite .def_443 false .def_442))) (let ((.def_445 (and .def_38 .def_12))) (let ((.def_446 (ite .def_445 false .def_444))) (let ((.def_447 (and .def_37 .def_12))) (let ((.def_448 (ite .def_447 true .def_446))) (let ((.def_449 (and .def_36 .def_12))) (let ((.def_450 (ite .def_449 false .def_448))) (let ((.def_451 (and .def_35 .def_12))) (let ((.def_452 (ite .def_451 false .def_450))) (let ((.def_453 (and .def_34 .def_12))) (let ((.def_454 (ite .def_453 false .def_452))) (let ((.def_455 (and .def_33 .def_12))) (let ((.def_456 (ite .def_455 false .def_454))) (let ((.def_457 (and .def_32 .def_12))) (let ((.def_458 (ite .def_457 false .def_456))) (let ((.def_459 (and .def_41 .def_11))) (let ((.def_460 (ite .def_459 false .def_458))) (let ((.def_461 (and .def_40 .def_11))) (let ((.def_462 (ite .def_461 false .def_460))) (let ((.def_463 (and .def_39 .def_11))) (let ((.def_464 (ite .def_463 false .def_462))) (let ((.def_465 (and .def_38 .def_11))) (let ((.def_466 (ite .def_465 false .def_464))) (let ((.def_467 (and .def_37 .def_11))) (let ((.def_468 (ite .def_467 false .def_466))) (let ((.def_469 (and .def_36 .def_11))) (let ((.def_470 (ite .def_469 true .def_468))) (let ((.def_471 (and .def_35 .def_11))) (let ((.def_472 (ite .def_471 false .def_470))) (let ((.def_473 (and .def_34 .def_11))) (let ((.def_474 (ite .def_473 false .def_472))) (let ((.def_475 (and .def_33 .def_11))) (let ((.def_476 (ite .def_475 false .def_474))) (let ((.def_477 (and .def_32 .def_11))) (let ((.def_478 (ite .def_477 false .def_476))) (let ((.def_479 (and .def_41 .def_10))) (let ((.def_480 (ite .def_479 false .def_478))) (let ((.def_481 (and .def_40 .def_10))) (let ((.def_482 (ite .def_481 false .def_480))) (let ((.def_483 (and .def_39 .def_10))) (let ((.def_484 (ite .def_483 false .def_482))) (let ((.def_485 (and .def_38 .def_10))) (let ((.def_486 (ite .def_485 false .def_484))) (let ((.def_487 (and .def_37 .def_10))) (let ((.def_488 (ite .def_487 false .def_486))) (let ((.def_489 (and .def_36 .def_10))) (let ((.def_490 (ite .def_489 false .def_488))) (let ((.def_491 (and .def_35 .def_10))) (let ((.def_492 (ite .def_491 true .def_490))) (let ((.def_493 (and .def_34 .def_10))) (let ((.def_494 (ite .def_493 false .def_492))) (let ((.def_495 (and .def_33 .def_10))) (let ((.def_496 (ite .def_495 false .def_494))) (let ((.def_497 (and .def_32 .def_10))) (let ((.def_498 (ite .def_497 false .def_496))) (let ((.def_499 (and .def_41 .def_9))) (let ((.def_500 (ite .def_499 false .def_498))) (let ((.def_501 (and .def_40 .def_9))) (let ((.def_502 (ite .def_501 false .def_500))) (let ((.def_503 (and .def_39 .def_9))) (let ((.def_504 (ite .def_503 false .def_502))) (let ((.def_505 (and .def_38 .def_9))) (let ((.def_506 (ite .def_505 false .def_504))) (let ((.def_507 (and .def_37 .def_9))) (let ((.def_508 (ite .def_507 false .def_506))) (let ((.def_509 (and .def_36 .def_9))) (let ((.def_510 (ite .def_509 false .def_508))) (let ((.def_511 (and .def_35 .def_9))) (let ((.def_512 (ite .def_511 false .def_510))) (let ((.def_513 (and .def_34 .def_9))) (let ((.def_514 (ite .def_513 true .def_512))) (let ((.def_515 (and .def_33 .def_9))) (let ((.def_516 (ite .def_515 false .def_514))) (let ((.def_517 (and .def_32 .def_9))) (let ((.def_518 (ite .def_517 false .def_516))) (let ((.def_519 (and .def_41 .def_8))) (let ((.def_520 (ite .def_519 false .def_518))) (let ((.def_521 (and .def_40 .def_8))) (let ((.def_522 (ite .def_521 false .def_520))) (let ((.def_523 (and .def_39 .def_8))) (let ((.def_524 (ite .def_523 false .def_522))) (let ((.def_525 (and .def_38 .def_8))) (let ((.def_526 (ite .def_525 false .def_524))) (let ((.def_527 (and .def_37 .def_8))) (let ((.def_528 (ite .def_527 false .def_526))) (let ((.def_529 (and .def_36 .def_8))) (let ((.def_530 (ite .def_529 false .def_528))) (let ((.def_531 (and .def_35 .def_8))) (let ((.def_532 (ite .def_531 false .def_530))) (let ((.def_533 (and .def_34 .def_8))) (let ((.def_534 (ite .def_533 false .def_532))) (let ((.def_535 (and .def_33 .def_8))) (let ((.def_536 (ite .def_535 true .def_534))) (let ((.def_537 (and .def_32 .def_8))) (let ((.def_538 (ite .def_537 false .def_536))) (let ((.def_539 (= 0.0 .def_282))) (let ((.def_540 (and .def_539 .def_538 .def_340 .def_339 .def_329 .def_319))) (let ((.def_541 (<= t@1 t@1))) (let ((.def_542 (< (- 1.0) t@1))) (let ((.def_543 (and .def_542 .def_541))) (let ((.def_544 (=> .def_543 .def_540))) (let ((.def_545 (<= dur_make_treatment@1 15.0))) (let ((.def_546 (<= 15.0 dur_make_treatment@1))) (let ((.def_547 (and .def_546 .def_545))) (let ((.def_548 (and .def_547 .def_307 .def_544 .def_310 .def_296 .def_260 .def_237))) (let ((.def_549 (=> act_make_treatment@1 .def_548))) (let ((.def_550 (<= fluent_counter_t9@0 31.0))) (let ((.def_551 (<= 0.0 fluent_counter_t9@0))) (let ((.def_552 (<= fluent_counter_t8@0 31.0))) (let ((.def_553 (<= 0.0 fluent_counter_t8@0))) (let ((.def_554 (<= fluent_counter_t7@0 31.0))) (let ((.def_555 (<= 0.0 fluent_counter_t7@0))) (let ((.def_556 (<= fluent_counter_t6@0 31.0))) (let ((.def_557 (<= 0.0 fluent_counter_t6@0))) (let ((.def_558 (<= fluent_counter_t5@0 31.0))) (let ((.def_559 (<= 0.0 fluent_counter_t5@0))) (let ((.def_560 (<= fluent_counter_t4@0 31.0))) (let ((.def_561 (<= 0.0 fluent_counter_t4@0))) (let ((.def_562 (<= fluent_counter_t3@0 31.0))) (let ((.def_563 (<= 0.0 fluent_counter_t3@0))) (let ((.def_564 (<= fluent_counter_t2@0 31.0))) (let ((.def_565 (<= 0.0 fluent_counter_t2@0))) (let ((.def_566 (<= fluent_counter_t1@0 31.0))) (let ((.def_567 (<= 0.0 fluent_counter_t1@0))) (let ((.def_568 (<= fluent_counter_t0@0 31.0))) (let ((.def_569 (<= 0.0 fluent_counter_t0@0))) (let ((.def_570 (= fluent_counter_t9@0 0.0))) (let ((.def_571 (= fluent_counter_t8@0 0.0))) (let ((.def_572 (= fluent_counter_t7@0 0.0))) (let ((.def_573 (= fluent_counter_t6@0 0.0))) (let ((.def_574 (= fluent_counter_t5@0 0.0))) (let ((.def_575 (= fluent_counter_t4@0 0.0))) (let ((.def_576 (= fluent_counter_t3@0 0.0))) (let ((.def_577 (= fluent_counter_t2@0 0.0))) (let ((.def_578 (= fluent_counter_t1@0 0.0))) (let ((.def_579 (= fluent_counter_t0@0 0.0))) (let ((.def_580 (= false false))) (let ((.def_581 (= fluent_ready_i0_t9@0 false))) (let ((.def_582 (= fluent_ready_i0_t8@0 false))) (let ((.def_583 (= fluent_ready_i0_t7@0 false))) (let ((.def_584 (= fluent_ready_i0_t6@0 false))) (let ((.def_585 (= fluent_ready_i0_t5@0 false))) (let ((.def_586 (= fluent_ready_i0_t4@0 false))) (let ((.def_587 (= fluent_ready_i0_t3@0 false))) (let ((.def_588 (= fluent_ready_i0_t2@0 false))) (let ((.def_589 (= fluent_ready_i0_t1@0 false))) (let ((.def_590 (= fluent_started_i0_t8@0 false))) (let ((.def_591 (= fluent_started_i0_t7@0 false))) (let ((.def_592 (= fluent_started_i0_t6@0 false))) (let ((.def_593 (= fluent_started_i0_t5@0 false))) (let ((.def_594 (= fluent_started_i0_t4@0 false))) (let ((.def_595 (= fluent_started_i0_t3@0 false))) (let ((.def_596 (= fluent_started_i0_t2@0 false))) (let ((.def_597 (= fluent_started_i0_t1@0 false))) (let ((.def_598 (= fluent_started_i0_t0@0 false))) (let ((.def_599 (= fluent_treated_i0_t9@0 false))) (let ((.def_600 (= fluent_treated_i0_t8@0 false))) (let ((.def_601 (= fluent_treated_i0_t7@0 false))) (let ((.def_602 (= fluent_treated_i0_t6@0 false))) (let ((.def_603 (= fluent_treated_i0_t5@0 false))) (let ((.def_604 (= fluent_treated_i0_t4@0 false))) (let ((.def_605 (= fluent_treated_i0_t3@0 false))) (let ((.def_606 (= fluent_treated_i0_t2@0 false))) (let ((.def_607 (= fluent_treated_i0_t1@0 false))) (let ((.def_608 (= fluent_treated_i0_t0@0 false))) (let ((.def_609 (= fluent_busy_@0 false))) (let ((.def_610 (= fluent_ready_i0_t0@0 true))) (let ((.def_611 (= fluent_started_i0_t9@0 true))) (let ((.def_612 (= true true))) (let ((.def_613 (= 0.0 0.0))) (let ((.def_614 (and .def_613 .def_612 .def_612 .def_612 .def_612 .def_612 .def_612 .def_612 .def_612 .def_612 .def_611 .def_610 .def_609 .def_608 .def_607 .def_606 .def_605 .def_604 .def_603 .def_602 .def_601 .def_600 .def_599 .def_598 .def_597 .def_596 .def_595 .def_594 .def_593 .def_592 .def_591 .def_590 .def_589 .def_588 .def_587 .def_586 .def_585 .def_584 .def_583 .def_582 .def_581 .def_580 .def_580 .def_580 .def_580 .def_580 .def_580 .def_580 .def_580 .def_580 .def_580 .def_580 .def_580 .def_580 .def_580 .def_580 .def_580 .def_580 .def_580 .def_580 .def_580 .def_580 .def_580 .def_580 .def_580 .def_580 .def_580 .def_580 .def_580 .def_580 .def_580 .def_580 .def_580 .def_580 .def_580 .def_580 .def_580 .def_580 .def_580 .def_580 .def_580 .def_580 .def_580 .def_580 .def_580 .def_580 .def_580 .def_580 .def_580 .def_580 .def_580 .def_580 .def_580 .def_580 .def_580 .def_580 .def_580 .def_580 .def_580 .def_580 .def_580 .def_580 .def_580 .def_580 .def_580 .def_580 .def_580 .def_580 .def_580 .def_580 .def_580 .def_580 .def_580 .def_580 .def_580 .def_580 .def_580 .def_580 .def_580 .def_580 .def_580 .def_580 .def_580 .def_580 .def_580 .def_580 .def_580 .def_580 .def_580 .def_580 .def_580 .def_580 .def_579 .def_578 .def_577 .def_576 .def_575 .def_574 .def_573 .def_572 .def_571 .def_570 .def_569 .def_568 .def_567 .def_566 .def_565 .def_564 .def_563 .def_562 .def_561 .def_560 .def_559 .def_558 .def_557 .def_556 .def_555 .def_554 .def_553 .def_552 .def_551 .def_550))) (let ((.def_615 (and .def_614 .def_549 .def_216 true true .def_215 .def_42 .def_31 .def_30 .def_29 .def_28 .def_27 .def_26 .def_25 .def_24 .def_23 .def_22 .def_21 .def_20 .def_19 .def_18 .def_7 .def_6 .def_5 .def_4 .def_3 .def_2 .def_1 .def_0 true))) .def_615)))))))))))))))))))))))))))))))))))))))))))))))))))))))))))))))))))))))))))))))))))))))))))))))))))))))))))))))))))))))))))))))))))))))))))))))))))))))))))))))))))))))))))))))))))))))))))))))))))))))))))))))))))))))))))))))))))))))))))))))))))))))))))))))))))))))))))))))))))))))))))))))))))))))))))))))))))))))))))))))))))))))))))))))))))))))))))))))))))))))))))))))))))))))))))))))))))))))))))))))))))))))))))))))))))))))))))))))))))))))))))))))))))))))))))))))))))))))))))))))))))))))))))))))))))))))))))))))))))))))))))))))))))))))))))))))))))))))))))))))))))))))))))))))))))))))))))))))))))))))))))))))))))))))))
(check-sat)


